\ Model Assignment Problem with Skill Levels
\ LP format - for model browsing. Use MPS format to capture full model detail.
Minimize
  67.54841186119999 x[0,0] + 12.25096797 x[0,1] + 34.7526386532 x[0,2]
   + 30.0889664334 x[1,0] + 76.2824092748 x[1,1] + 70.9029538681 x[1,2]
   + 90.2961610934 x[2,0] + 17.8244949366 x[2,1] + 47.9729637717 x[2,2]
   + 12.6817497494 x[3,0] + 29.6774177323 x[3,1] + 55.4819759293 x[3,2]
   + 12.3882372715 x[4,0] + 27.8953885618 x[4,1] + 68.48959940020001 x[4,2]
Subject To
 coverage_0: x[0,0] + x[1,0] + x[2,0] + x[3,0] + x[4,0] >= 1
 coverage_1: x[0,1] + x[1,1] + x[2,1] + x[3,1] + x[4,1] >= 1
 coverage_2: x[0,2] + x[1,2] + x[2,2] + x[3,2] + x[4,2] >= 1
 assignment_0: x[0,0] + x[0,1] + x[0,2] <= 1
 assignment_1: x[1,0] + x[1,1] + x[1,2] <= 1
 assignment_2: x[2,0] + x[2,1] + x[2,2] <= 1
 assignment_3: x[3,0] + x[3,1] + x[3,2] <= 1
 assignment_4: x[4,0] + x[4,1] + x[4,2] <= 1
 skill_0_0: 5.9044733254 x[0,0] >= 8.252373266499999
 skill_0_1: 5.9044733254 x[0,1] >= 7.2832545549
 skill_0_2: 5.9044733254 x[0,2] >= 4.0622546487
 skill_1_0: 2.9839655984 x[1,0] >= 8.252373266499999
 skill_1_1: 2.9839655984 x[1,1] >= 7.2832545549
 skill_1_2: 2.9839655984 x[1,2] >= 4.0622546487
 skill_2_0: 6.3033911549 x[2,0] >= 8.252373266499999
 skill_2_1: 6.3033911549 x[2,1] >= 7.2832545549
 skill_2_2: 6.3033911549 x[2,2] >= 4.0622546487
 skill_3_0: 8.284874110100001 x[3,0] >= 8.252373266499999
 skill_3_1: 8.284874110100001 x[3,1] >= 7.2832545549
 skill_3_2: 8.284874110100001 x[3,2] >= 4.0622546487
 skill_4_0: 1.0584888371 x[4,0] >= 8.252373266499999
 skill_4_1: 1.0584888371 x[4,1] >= 7.2832545549
 skill_4_2: 1.0584888371 x[4,2] >= 4.0622546487
Bounds
Binaries
 x[0,0] x[0,1] x[0,2] x[1,0] x[1,1] x[1,2] x[2,0] x[2,1] x[2,2] x[3,0]
 x[3,1] x[3,2] x[4,0] x[4,1] x[4,2]
End
